c File: data_files/evolved_graphs/g0479.col
c
c Auto generated graph
c
p edge 100 1159
e 1 4
e 1 22
e 1 23
e 1 24
e 1 25
e 1 26
e 1 27
e 1 29
e 1 30
e 1 31
e 1 32
e 1 33
e 1 36
e 1 37
e 1 40
e 1 41
e 1 43
e 1 44
e 1 48
e 1 49
e 1 51
e 1 52
e 1 54
e 1 55
e 1 57
e 1 58
e 1 59
e 1 60
e 1 61
e 1 64
e 1 89
e 1 92
e 1 94
e 1 95
e 1 96
e 1 97
e 1 98
e 1 99
e 1 100
e 2 4
e 2 22
e 2 23
e 2 24
e 2 25
e 2 26
e 2 27
e 2 29
e 2 30
e 2 31
e 2 32
e 2 33
e 2 34
e 2 38
e 2 40
e 2 42
e 2 47
e 2 48
e 2 50
e 2 55
e 2 60
e 2 61
e 2 62
e 2 63
e 2 66
e 2 73
e 2 84
e 2 85
e 2 91
e 2 97
e 2 100
e 3 4
e 3 22
e 3 23
e 3 24
e 3 25
e 3 26
e 3 27
e 3 28
e 3 29
e 3 30
e 3 31
e 3 32
e 3 33
e 3 36
e 3 38
e 3 40
e 3 47
e 3 48
e 3 49
e 3 51
e 3 53
e 3 54
e 3 55
e 3 56
e 3 57
e 3 59
e 3 61
e 3 64
e 3 65
e 3 81
e 3 97
e 3 98
e 3 99
e 3 100
e 4 22
e 4 23
e 4 24
e 4 25
e 4 26
e 4 27
e 4 29
e 4 30
e 4 31
e 4 32
e 4 33
e 4 35
e 4 37
e 4 38
e 4 40
e 4 41
e 4 42
e 4 43
e 4 46
e 4 47
e 4 49
e 4 55
e 4 59
e 4 60
e 4 63
e 4 66
e 4 68
e 4 71
e 4 92
e 4 94
e 4 97
e 4 98
e 4 99
e 4 100
e 5 22
e 5 23
e 5 24
e 5 25
e 5 26
e 5 27
e 5 28
e 5 29
e 5 30
e 5 31
e 5 32
e 5 33
e 5 37
e 5 38
e 5 39
e 5 46
e 5 48
e 5 49
e 5 52
e 5 55
e 5 56
e 5 57
e 5 58
e 5 59
e 5 61
e 5 62
e 5 63
e 5 71
e 5 73
e 5 74
e 5 75
e 5 76
e 5 77
e 5 78
e 5 79
e 5 84
e 5 94
e 5 95
e 5 98
e 5 100
e 6 22
e 6 23
e 6 24
e 6 25
e 6 26
e 6 27
e 6 28
e 6 29
e 6 30
e 6 31
e 6 32
e 6 33
e 6 34
e 6 37
e 6 38
e 6 39
e 6 41
e 6 44
e 6 46
e 6 47
e 6 51
e 6 54
e 6 60
e 6 65
e 6 70
e 6 73
e 6 74
e 6 75
e 6 76
e 6 77
e 6 78
e 6 79
e 6 100
e 7 22
e 7 23
e 7 24
e 7 25
e 7 26
e 7 27
e 7 28
e 7 29
e 7 30
e 7 31
e 7 32
e 7 33
e 7 35
e 7 42
e 7 46
e 7 47
e 7 48
e 7 50
e 7 53
e 7 55
e 7 58
e 7 59
e 7 60
e 7 61
e 7 63
e 7 71
e 7 73
e 7 74
e 7 75
e 7 76
e 7 77
e 7 78
e 7 79
e 7 87
e 7 93
e 7 94
e 7 95
e 7 99
e 7 100
e 8 22
e 8 23
e 8 24
e 8 25
e 8 26
e 8 27
e 8 28
e 8 29
e 8 30
e 8 31
e 8 32
e 8 33
e 8 37
e 8 42
e 8 47
e 8 52
e 8 53
e 8 55
e 8 57
e 8 62
e 8 63
e 8 65
e 8 71
e 8 73
e 8 74
e 8 75
e 8 76
e 8 77
e 8 78
e 8 79
e 8 91
e 8 93
e 8 97
e 8 99
e 8 100
e 9 22
e 9 23
e 9 25
e 9 26
e 9 27
e 9 28
e 9 29
e 9 30
e 9 31
e 9 32
e 9 33
e 9 34
e 9 36
e 9 39
e 9 42
e 9 43
e 9 44
e 9 45
e 9 47
e 9 52
e 9 53
e 9 55
e 9 59
e 9 60
e 9 64
e 9 65
e 9 73
e 9 74
e 9 77
e 9 79
e 9 80
e 9 81
e 9 82
e 9 85
e 9 86
e 9 95
e 9 99
e 9 100
e 10 22
e 10 23
e 10 24
e 10 25
e 10 26
e 10 27
e 10 29
e 10 30
e 10 31
e 10 32
e 10 33
e 10 34
e 10 36
e 10 40
e 10 42
e 10 46
e 10 47
e 10 48
e 10 50
e 10 51
e 10 52
e 10 53
e 10 54
e 10 57
e 10 58
e 10 59
e 10 61
e 10 62
e 10 63
e 10 64
e 10 75
e 10 76
e 10 78
e 10 79
e 10 82
e 10 87
e 10 95
e 10 99
e 10 100
e 11 18
e 11 22
e 11 23
e 11 24
e 11 25
e 11 26
e 11 27
e 11 28
e 11 30
e 11 31
e 11 32
e 11 33
e 11 35
e 11 37
e 11 38
e 11 41
e 11 42
e 11 44
e 11 45
e 11 46
e 11 49
e 11 57
e 11 58
e 11 61
e 11 64
e 11 75
e 11 83
e 11 84
e 11 88
e 11 89
e 11 90
e 11 94
e 11 97
e 12 22
e 12 23
e 12 24
e 12 26
e 12 27
e 12 28
e 12 29
e 12 30
e 12 31
e 12 32
e 12 33
e 12 43
e 12 44
e 12 45
e 12 47
e 12 51
e 12 52
e 12 63
e 12 65
e 12 76
e 12 79
e 12 81
e 12 82
e 12 83
e 12 84
e 12 85
e 12 87
e 12 88
e 12 89
e 12 91
e 12 97
e 12 98
e 13 22
e 13 23
e 13 24
e 13 25
e 13 26
e 13 28
e 13 29
e 13 30
e 13 31
e 13 32
e 13 33
e 13 36
e 13 38
e 13 47
e 13 57
e 13 63
e 13 73
e 13 75
e 13 76
e 13 77
e 13 78
e 13 79
e 13 82
e 13 84
e 13 91
e 13 93
e 13 94
e 13 95
e 13 97
e 13 99
e 14 22
e 14 23
e 14 24
e 14 25
e 14 26
e 14 27
e 14 28
e 14 29
e 14 30
e 14 31
e 14 32
e 14 33
e 14 35
e 14 37
e 14 39
e 14 40
e 14 46
e 14 47
e 14 50
e 14 51
e 14 52
e 14 57
e 14 58
e 14 59
e 14 60
e 14 64
e 14 73
e 14 79
e 14 83
e 14 88
e 14 92
e 14 95
e 14 97
e 15 25
e 15 26
e 15 27
e 15 28
e 15 29
e 15 30
e 15 31
e 15 32
e 15 33
e 15 34
e 15 35
e 15 36
e 15 37
e 15 38
e 15 39
e 15 40
e 15 41
e 15 42
e 15 43
e 15 44
e 15 45
e 15 46
e 15 47
e 15 53
e 15 55
e 15 56
e 15 57
e 15 58
e 15 59
e 15 60
e 15 61
e 15 62
e 15 63
e 15 64
e 15 65
e 15 66
e 15 67
e 15 68
e 15 69
e 15 70
e 15 71
e 15 72
e 15 76
e 15 78
e 15 79
e 15 80
e 15 81
e 15 84
e 15 87
e 15 91
e 15 92
e 15 99
e 16 25
e 16 27
e 16 28
e 16 29
e 16 30
e 16 31
e 16 32
e 16 33
e 16 34
e 16 35
e 16 36
e 16 37
e 16 38
e 16 39
e 16 40
e 16 41
e 16 42
e 16 43
e 16 44
e 16 45
e 16 46
e 16 47
e 16 48
e 16 50
e 16 53
e 16 54
e 16 55
e 16 56
e 16 57
e 16 58
e 16 59
e 16 60
e 16 61
e 16 62
e 16 63
e 16 64
e 16 65
e 16 66
e 16 67
e 16 68
e 16 69
e 16 70
e 16 71
e 16 72
e 16 73
e 16 74
e 16 75
e 16 78
e 16 81
e 16 83
e 16 87
e 16 93
e 16 95
e 16 96
e 16 97
e 16 98
e 17 25
e 17 27
e 17 28
e 17 29
e 17 30
e 17 31
e 17 32
e 17 33
e 17 34
e 17 35
e 17 36
e 17 37
e 17 38
e 17 39
e 17 40
e 17 41
e 17 42
e 17 43
e 17 44
e 17 45
e 17 46
e 17 47
e 17 52
e 17 53
e 17 56
e 17 57
e 17 58
e 17 59
e 17 60
e 17 61
e 17 62
e 17 63
e 17 64
e 17 65
e 17 66
e 17 67
e 17 68
e 17 69
e 17 70
e 17 71
e 17 72
e 17 73
e 17 74
e 17 77
e 17 81
e 17 84
e 17 85
e 17 89
e 17 92
e 17 93
e 17 97
e 18 25
e 18 26
e 18 27
e 18 28
e 18 29
e 18 30
e 18 31
e 18 32
e 18 33
e 18 34
e 18 36
e 18 37
e 18 38
e 18 39
e 18 40
e 18 41
e 18 42
e 18 43
e 18 44
e 18 45
e 18 46
e 18 47
e 18 49
e 18 50
e 18 53
e 18 55
e 18 56
e 18 57
e 18 58
e 18 59
e 18 60
e 18 61
e 18 62
e 18 63
e 18 64
e 18 65
e 18 66
e 18 67
e 18 68
e 18 69
e 18 71
e 18 72
e 18 75
e 18 77
e 18 81
e 18 82
e 18 83
e 18 89
e 18 91
e 18 93
e 18 95
e 18 96
e 18 97
e 18 98
e 18 99
e 19 25
e 19 26
e 19 27
e 19 28
e 19 29
e 19 30
e 19 31
e 19 32
e 19 33
e 19 34
e 19 35
e 19 36
e 19 37
e 19 38
e 19 39
e 19 40
e 19 41
e 19 42
e 19 43
e 19 44
e 19 45
e 19 46
e 19 47
e 19 48
e 19 51
e 19 54
e 19 55
e 19 56
e 19 57
e 19 58
e 19 59
e 19 60
e 19 61
e 19 62
e 19 63
e 19 65
e 19 66
e 19 67
e 19 68
e 19 69
e 19 70
e 19 71
e 19 72
e 19 74
e 19 77
e 19 80
e 19 88
e 20 25
e 20 26
e 20 27
e 20 28
e 20 29
e 20 30
e 20 31
e 20 32
e 20 33
e 20 34
e 20 35
e 20 36
e 20 37
e 20 38
e 20 39
e 20 40
e 20 41
e 20 42
e 20 43
e 20 44
e 20 45
e 20 46
e 20 47
e 20 50
e 20 51
e 20 52
e 20 56
e 20 57
e 20 58
e 20 59
e 20 60
e 20 61
e 20 62
e 20 63
e 20 64
e 20 65
e 20 66
e 20 67
e 20 68
e 20 69
e 20 70
e 20 71
e 20 72
e 20 79
e 20 80
e 20 83
e 20 85
e 20 88
e 20 90
e 20 92
e 20 93
e 20 94
e 20 96
e 20 98
e 20 99
e 21 25
e 21 26
e 21 27
e 21 28
e 21 29
e 21 30
e 21 31
e 21 32
e 21 33
e 21 34
e 21 35
e 21 36
e 21 37
e 21 38
e 21 39
e 21 40
e 21 41
e 21 42
e 21 43
e 21 44
e 21 45
e 21 46
e 21 47
e 21 52
e 21 53
e 21 54
e 21 55
e 21 56
e 21 57
e 21 58
e 21 59
e 21 60
e 21 61
e 21 62
e 21 63
e 21 64
e 21 65
e 21 66
e 21 67
e 21 68
e 21 69
e 21 70
e 21 71
e 21 72
e 21 76
e 21 77
e 21 80
e 21 83
e 21 84
e 21 87
e 21 88
e 21 91
e 21 94
e 21 95
e 22 25
e 22 26
e 22 27
e 22 28
e 22 29
e 22 30
e 22 31
e 22 32
e 22 33
e 22 34
e 22 36
e 22 37
e 22 38
e 22 39
e 22 40
e 22 41
e 22 42
e 22 43
e 22 44
e 22 45
e 22 46
e 22 47
e 22 48
e 22 50
e 22 52
e 22 54
e 22 56
e 22 57
e 22 58
e 22 59
e 22 60
e 22 61
e 22 62
e 22 63
e 22 64
e 22 65
e 22 66
e 22 73
e 22 77
e 22 81
e 22 82
e 22 87
e 22 88
e 22 90
e 22 91
e 22 93
e 22 97
e 22 99
e 23 25
e 23 26
e 23 27
e 23 28
e 23 29
e 23 30
e 23 31
e 23 32
e 23 33
e 23 34
e 23 36
e 23 37
e 23 38
e 23 39
e 23 40
e 23 41
e 23 42
e 23 43
e 23 44
e 23 45
e 23 47
e 23 50
e 23 52
e 23 55
e 23 56
e 23 57
e 23 58
e 23 59
e 23 60
e 23 61
e 23 62
e 23 63
e 23 64
e 23 65
e 23 66
e 23 75
e 23 77
e 23 78
e 23 80
e 23 81
e 23 82
e 23 83
e 23 84
e 23 85
e 23 87
e 23 92
e 23 93
e 23 94
e 24 25
e 24 26
e 24 27
e 24 28
e 24 29
e 24 30
e 24 31
e 24 32
e 24 33
e 24 34
e 24 36
e 24 37
e 24 38
e 24 39
e 24 40
e 24 41
e 24 42
e 24 43
e 24 44
e 24 45
e 24 46
e 24 47
e 24 49
e 24 54
e 24 56
e 24 57
e 24 58
e 24 59
e 24 60
e 24 61
e 24 62
e 24 63
e 24 64
e 24 65
e 24 66
e 24 67
e 24 69
e 24 94
e 24 97
e 25 35
e 25 52
e 25 53
e 25 54
e 25 55
e 25 80
e 25 83
e 25 94
e 25 95
e 25 100
e 26 35
e 26 48
e 26 50
e 26 52
e 26 53
e 26 56
e 26 57
e 26 83
e 27 35
e 27 48
e 27 50
e 27 51
e 27 52
e 27 55
e 27 56
e 27 57
e 27 87
e 27 96
e 28 79
e 28 91
e 28 94
e 28 96
e 28 98
e 29 79
e 29 84
e 30 54
e 30 79
e 30 93
e 30 94
e 30 96
e 31 81
e 31 88
e 31 90
e 31 91
e 32 88
e 34 81
e 34 88
e 34 95
e 34 98
e 35 81
e 36 80
e 36 81
e 36 83
e 36 84
e 36 86
e 36 100
e 37 81
e 37 92
e 37 99
e 38 90
e 38 92
e 38 97
e 39 80
e 39 85
e 39 86
e 39 87
e 39 97
e 40 79
e 40 94
e 40 96
e 41 86
e 41 89
e 41 91
e 41 94
e 41 96
e 41 99
e 42 86
e 42 87
e 42 88
e 42 97
e 43 77
e 43 95
e 45 88
e 45 95
e 47 79
e 49 75
e 50 79
e 50 82
e 51 95
e 52 75
e 52 94
e 53 92
e 53 93
e 53 100
e 54 83
e 54 90
e 54 93
e 54 94
e 55 90
e 55 95
e 56 82
e 56 91
e 56 92
e 56 93
e 57 87
e 57 90
e 57 98
e 57 99
e 58 97
e 58 99
e 59 90
e 59 91
e 59 97
e 59 98
e 59 99
e 60 95
e 61 88
e 61 99
e 62 83
e 62 95
e 62 100
e 64 91
e 64 96
e 65 91
e 65 94
e 65 99
e 66 94
e 66 97
e 66 99
e 67 96
e 67 100
e 68 92
e 68 93
e 68 96
e 68 97
e 68 98
e 68 100
e 69 97
e 69 98
e 70 90
e 70 95
e 70 97
e 71 90
e 72 95
e 73 76
e 76 94
e 77 78
e 77 89
e 78 91
e 79 90
e 79 93
e 79 95
e 81 89
e 81 92
e 83 97
e 84 96
e 85 91
e 85 96
e 88 91
e 90 96
e 91 96
e 93 99
e 97 98
e 97 100
